networks/zoo_52_650/zoo_52_650-lower.txt
Number of groups: 26
Flow 1: {1 7 0} {7 2 0} {2 28 0} 
Flow 2: {2 3 0} {3 29 0} 
Flow 3: {1 8 0} {8 4 0} {4 30 0} 
Flow 4: {1 5 0} {5 31 0} 
Flow 5: {5 11 0} {11 10 0} {10 9 0} {9 6 0} {6 32 0} 
Flow 6: {7 33 0} 
Flow 7: {8 34 0} 
Flow 8: {9 35 0} 
Flow 9: {10 36 0} 
Flow 10: {11 37 0} 
Flow 11: {11 16 0} {16 12 0} {12 38 0} 
Flow 12: {10 14 0} {14 13 0} {13 39 0} 
Flow 13: {14 40 0} 
Flow 14: {3 18 0} {18 17 0} {17 15 0} {15 41 0} 
Flow 15: {16 42 0} 
Flow 16: {17 43 0} 
Flow 17: {18 44 0} 
Flow 18: {3 25 0} {25 24 0} {24 23 0} {23 21 0} {21 20 0} {20 19 0} {19 45 0} 
Flow 19: {20 46 0} 
Flow 20: {21 47 0} 
Flow 21: {23 22 0} {22 48 0} 
Flow 22: {23 49 0} 
Flow 23: {24 50 0} 
Flow 24: {25 51 0} 
Flow 25: {24 26 0} {26 52 0} 
Flow 26: {7 1 0} {1 27 0} 
Flow 26: {2 7 0} Flow 28: {3 4 0} Flow 30: {17 6 0} Flow 32: {2 8 0} Flow 33: {6 9 0} Flow 51: {3 2 0} Flow 59: {9 10 0} Flow 76: {4 8 0} {8 1 0} Flow 77: {4 3 0} Flow 101: {5 1 0} Flow 114: {6 17 0} Flow 125: {17 26 0} Flow 126: {10 11 0} {11 5 0} Flow 127: {17 18 0} {18 3 0} Flow 143: {26 24 0} Flow 177: {8 2 0} Flow 276: {12 16 0} {16 11 0} Flow 281: {12 13 0} {13 14 0} {14 10 0} Flow 301: {13 12 0} Flow 351: {15 17 0} Flow 451: {19 20 0} {20 21 0} {21 23 0} {23 24 0} {24 25 0} {25 3 0} Flow 456: {26 17 0} Flow 471: {20 22 0} Flow 521: {21 22 0} Flow 526: {22 23 0} Flow 544: {22 20 0} Flow 546: {22 21 0} Time taken running everything: 1 seconds
