networks/zoo_52_650/zoo_52_650-lower.sol
<?xml version = "1.0" encoding="UTF-8" standalone="yes"?>
<CPLEXSolution version="1.2">
 <header
   problemName="networks/zoo_52_650/zoo_52_650-lower.lp"
   solutionName="incumbent"
   solutionIndex="-1"
   objectiveValue="26"
   solutionTypeValue="3"
   solutionTypeString="primal"
   solutionStatusValue="101"
   solutionStatusString="integer optimal solution"
   solutionMethodString="mip"
   primalFeasible="1"
   dualFeasible="1"
   MIPNodes="0"
   MIPIterations="0"
   writeLevel="3"/>
 <quality
   epInt="1.0000000000000001e-05"
   epRHS="9.9999999999999995e-07"
   maxIntInfeas="0"
   maxPrimalInfeas="0"
   maxX="1"
   maxSlack="1"/>
 <variables>
  <variable name="Y(1,2)" index="1" value="1"/>
  <variable name="Y(2,3)" index="54" value="1"/>
  <variable name="Y(3,4)" index="107" value="1"/>
  <variable name="Y(4,5)" index="160" value="1"/>
  <variable name="Y(5,6)" index="213" value="1"/>
  <variable name="Y(6,7)" index="266" value="1"/>
  <variable name="Y(7,8)" index="319" value="1"/>
  <variable name="Y(8,9)" index="372" value="1"/>
  <variable name="Y(9,10)" index="425" value="1"/>
  <variable name="Y(10,11)" index="478" value="1"/>
  <variable name="Y(11,12)" index="531" value="1"/>
  <variable name="Y(12,13)" index="584" value="1"/>
  <variable name="Y(13,14)" index="637" value="1"/>
  <variable name="Y(14,15)" index="690" value="1"/>
  <variable name="Y(15,16)" index="743" value="1"/>
  <variable name="Y(16,17)" index="796" value="1"/>
  <variable name="Y(17,18)" index="849" value="1"/>
  <variable name="Y(18,19)" index="902" value="1"/>
  <variable name="Y(19,20)" index="955" value="1"/>
  <variable name="Y(20,21)" index="1008" value="1"/>
  <variable name="Y(21,22)" index="1061" value="1"/>
  <variable name="Y(22,23)" index="1114" value="1"/>
  <variable name="Y(23,24)" index="1167" value="1"/>
  <variable name="Y(24,25)" index="1220" value="1"/>
  <variable name="Y(25,26)" index="1273" value="1"/>
  <variable name="Y(26,1)" index="1300" value="1"/>
  <variable name="X(1,5,4)" index="33803" value="1"/>
  <variable name="X(1,7,1)" index="34450" value="1"/>
  <variable name="X(1,8,3)" index="35102" value="1"/>
  <variable name="X(1,27,26)" index="35775" value="1"/>
  <variable name="X(2,3,2)" index="36401" value="1"/>
  <variable name="X(2,7,26)" index="37075" value="1"/>
  <variable name="X(2,8,32)" index="37731" value="1"/>
  <variable name="X(2,28,1)" index="38350" value="1"/>
  <variable name="X(3,2,51)" index="39050" value="1"/>
  <variable name="X(3,4,28)" index="39677" value="1"/>
  <variable name="X(3,18,14)" index="40313" value="1"/>
  <variable name="X(3,25,18)" index="40967" value="1"/>
  <variable name="X(3,29,2)" index="41601" value="1"/>
  <variable name="X(4,3,77)" index="42326" value="1"/>
  <variable name="X(4,8,76)" index="42975" value="1"/>
  <variable name="X(4,30,3)" index="43552" value="1"/>
  <variable name="X(5,1,101)" index="44300" value="1"/>
  <variable name="X(5,11,5)" index="44854" value="1"/>
  <variable name="X(5,31,4)" index="45503" value="1"/>
  <variable name="X(6,9,33)" index="46182" value="1"/>
  <variable name="X(6,17,114)" index="46913" value="1"/>
  <variable name="X(6,32,5)" index="47454" value="1"/>
  <variable name="X(7,1,26)" index="48125" value="1"/>
  <variable name="X(7,2,1)" index="48750" value="1"/>
  <variable name="X(7,33,6)" index="49405" value="1"/>
  <variable name="X(8,1,76)" index="50125" value="1"/>
  <variable name="X(8,2,177)" index="50876" value="1"/>
  <variable name="X(8,4,3)" index="51352" value="1"/>
  <variable name="X(8,34,7)" index="52006" value="1"/>
  <variable name="X(9,6,5)" index="52654" value="1"/>
  <variable name="X(9,10,59)" index="53358" value="1"/>
  <variable name="X(9,35,8)" index="53957" value="1"/>
  <variable name="X(10,9,5)" index="54604" value="1"/>
  <variable name="X(10,11,126)" index="55375" value="1"/>
  <variable name="X(10,14,12)" index="55911" value="1"/>
  <variable name="X(10,36,9)" index="56558" value="1"/>
  <variable name="X(11,5,126)" index="57325" value="1"/>
  <variable name="X(11,10,5)" index="57854" value="1"/>
  <variable name="X(11,16,11)" index="58510" value="1"/>
  <variable name="X(11,37,10)" index="59159" value="1"/>
  <variable name="X(12,13,281)" index="60080" value="1"/>
  <variable name="X(12,16,276)" index="60725" value="1"/>
  <variable name="X(12,38,11)" index="61110" value="1"/>
  <variable name="X(13,12,301)" index="62050" value="1"/>
  <variable name="X(13,14,281)" index="62680" value="1"/>
  <variable name="X(13,39,12)" index="63061" value="1"/>
  <variable name="X(14,10,281)" index="63980" value="1"/>
  <variable name="X(14,13,12)" index="64361" value="1"/>
  <variable name="X(14,40,13)" index="65012" value="1"/>
  <variable name="X(15,17,351)" index="66000" value="1"/>
  <variable name="X(15,41,14)" index="66313" value="1"/>
  <variable name="X(16,11,276)" index="67225" value="1"/>
  <variable name="X(16,12,11)" index="67610" value="1"/>
  <variable name="X(16,42,15)" index="68264" value="1"/>
  <variable name="X(17,6,30)" index="68929" value="1"/>
  <variable name="X(17,15,14)" index="69563" value="1"/>
  <variable name="X(17,18,127)" index="70326" value="1"/>
  <variable name="X(17,26,125)" index="70974" value="1"/>
  <variable name="X(17,43,16)" index="71515" value="1"/>
  <variable name="X(18,3,127)" index="72276" value="1"/>
  <variable name="X(18,17,14)" index="72813" value="1"/>
  <variable name="X(18,44,17)" index="73466" value="1"/>
  <variable name="X(19,20,451)" index="74550" value="1"/>
  <variable name="X(19,45,18)" index="74767" value="1"/>
  <variable name="X(20,19,18)" index="75417" value="1"/>
  <variable name="X(20,21,451)" index="76500" value="1"/>
  <variable name="X(20,22,471)" index="77170" value="1"/>
  <variable name="X(20,46,19)" index="77368" value="1"/>
  <variable name="X(21,20,18)" index="78017" value="1"/>
  <variable name="X(21,22,521)" index="79170" value="1"/>
  <variable name="X(21,23,451)" index="79750" value="1"/>
  <variable name="X(21,47,20)" index="79969" value="1"/>
  <variable name="X(22,20,544)" index="81143" value="1"/>
  <variable name="X(22,21,546)" index="81795" value="1"/>
  <variable name="X(22,23,526)" index="82425" value="1"/>
  <variable name="X(22,48,21)" index="82570" value="1"/>
  <variable name="X(23,21,18)" index="83217" value="1"/>
  <variable name="X(23,22,21)" index="83870" value="1"/>
  <variable name="X(23,24,451)" index="84950" value="1"/>
  <variable name="X(23,49,22)" index="85171" value="1"/>
  <variable name="X(24,23,18)" index="85817" value="1"/>
  <variable name="X(24,25,451)" index="86900" value="1"/>
  <variable name="X(24,26,25)" index="87124" value="1"/>
  <variable name="X(24,50,23)" index="87772" value="1"/>
  <variable name="X(25,3,451)" index="88850" value="1"/>
  <variable name="X(25,24,18)" index="89067" value="1"/>
  <variable name="X(25,51,24)" index="89723" value="1"/>
  <variable name="X(26,17,456)" index="90805" value="1"/>
  <variable name="X(26,24,143)" index="91142" value="1"/>
  <variable name="X(26,52,25)" index="91674" value="1"/>
 </variables>
</CPLEXSolution>
